************************************************************************
file with basedata            : mm50_.bas
initial value random generator: 661963818
************************************************************************
projects                      :  1
jobs (incl. supersource/sink ):  12
horizon                       :  85
RESOURCES
  - renewable                 :  2   R
  - nonrenewable              :  2   N
  - doubly constrained        :  0   D
************************************************************************
PROJECT INFORMATION:
pronr.  #jobs rel.date duedate tardcost  MPM-Time
    1     10      0       20        9       20
************************************************************************
PRECEDENCE RELATIONS:
jobnr.    #modes  #successors   successors
   1        1          3           2   3   4
   2        3          2           8  11
   3        3          2           6  11
   4        3          3           5  10  11
   5        3          1           7
   6        3          2           8  10
   7        3          1           8
   8        3          1           9
   9        3          1          12
  10        3          1          12
  11        3          1          12
  12        1          0        
************************************************************************
REQUESTS/DURATIONS:
jobnr. mode duration  R 1  R 2  N 1  N 2
------------------------------------------------------------------------
  1      1     0       0    0    0    0
  2      1     1       5   10    0    4
         2     4       4    7    9    0
         3     9       4    7    8    0
  3      1     2       3    5    0    4
         2     3       3    4    4    0
         3     8       3    3    3    0
  4      1     4       9   10    8    0
         2     8       7    7    5    0
         3     8       6    5    0    4
  5      1     7       8    5    9    0
         2     8       5    4    0   10
         3     8       1    5    0    7
  6      1     5       7    7    3    0
         2     5       8    7    0    6
         3     6       6    6    4    0
  7      1     1       5    8    5    0
         2     6       4    5    5    0
         3    10       2    5    0    6
  8      1     5       9    7    0    5
         2     8       5    3    7    0
         3     8       8    3    0    3
  9      1     3       9    8    4    0
         2     6       8    6    0    6
         3     9       6    6    1    0
 10      1     4       8    5    2    0
         2     9       5    4    0    4
         3    10       4    3    0    2
 11      1     3       5    5    3    0
         2     6       4    4    0    3
         3     9       3    4    2    0
 12      1     0       0    0    0    0
************************************************************************
RESOURCEAVAILABILITIES:
  R 1  R 2  N 1  N 2
   17   20   28   26
************************************************************************
MAXIMAL LAGS:
from  to  type  delay
    1   12   ES      0
    1    2   ES      0
    2   12   ES      0
    1    3   ES      0
    3   12   ES      0
    1    4   ES      0
    4   12   ES      0
    1    5   ES      0
    5   12   ES      0
    1    6   ES      0
    6   12   ES      0
    1    7   ES      0
    7   12   ES      0
    1    8   ES      0
    8   12   ES      0
    1    9   ES      0
    9   12   ES      0
    1   10   ES      0
   10   12   ES      0
    1   11   ES      0
   11   12   ES      0
    1   12   ES      0
    2    8   SS     -3
    2    8   SE      3
    2    8   ES     10
    2    8   EE      2
    2   11   SS      9
    2   11   SE     -3
    2   11   ES     -8
    2   11   EE     11
    3    6   SS     10
    3    6   SE     -8
    3    6   ES     -8
    3    6   EE      7
    3   11   SS     -3
    3   11   SE      0
    3   11   ES     -4
    3   11   EE      8
    4    5   SS     -5
    4    5   SE    -12
    4    5   ES     -6
    4    5   EE      6
    4   10   SS     -3
    4   10   SE     -8
    4   10   ES      6
    4   10   EE    -12
    4   11   SS     -4
    4   11   SE     -1
    4   11   ES     11
    4   11   EE      4
    5    7   SS     11
    5    7   SE      4
    7    5   SE      0
    5    7   ES      0
    5    7   EE      3
    6    8   SS      7
    6    8   SE     -7
    6    8   ES     -1
    6    8   EE      8
    6   10   SS     -8
    6   10   SE      6
    6   10   ES      4
    6   10   EE     -2
    7    8   SS      4
    7    8   SE     -1
    7    8   ES      0
    7    8   EE      3
    8    9   SS      8
    8    9   SE     -7
    8    9   ES      4
    8    9   EE      3
************************************************************************
